array [1..80] of int: a = [1, 0, 0, 0, 0, 1, 0, 0, 0, 1, 0, 0, 0, 1, 0, 1, 1, 0, 0, 1, 0, 0, 1, 0, 0, 1, 1, 0, 1, 0, 0, 0, 0, 1, 0, 0, 1, 0, 0, 0, 0, 1, 1, 0, 0, 0, 0, 0, 0, 1, 1, 1, 0, 0, 0, 0, 0, 0, 0, 1, 1, 0, 0, 1, 0, 0, 1, 0, 0, 1, 0, 1, 1, 0, 0, 0, 0, 1, 1, 0];
array [1..10] of int: costs = [19, 16, 18, 13, 15, 19, 15, 17, 16, 15];
var 0..163: INT____00001 :: is_defined_var :: var_is_introduced;
array [1..10] of var 0..1: x :: output_array([1..10]);
var 0..163: z :: output_var = INT____00001;
constraint int_lin_eq([-1, 19, 16, 18, 13, 15, 19, 15, 17, 16, 15], [INT____00001, x[1], x[2], x[3], x[4], x[5], x[6], x[7], x[8], x[9], x[10]], 0) :: defines_var(INT____00001);
constraint int_lin_le([-1, -1], [x[3], x[10]], -1);
constraint int_lin_le([-1, -1, -1], [x[1], x[3], x[10]], -1);
constraint int_lin_le([-1, -1, -1], [x[2], x[8], x[9]], -1);
constraint int_lin_le([-1, -1, -1], [x[3], x[7], x[8]], -1);
constraint int_lin_le([-1, -1, -1], [x[4], x[5], x[8]], -1);
constraint int_lin_le([-1, -1, -1, -1], [x[1], x[2], x[9], x[10]], -1);
constraint int_lin_le([-1, -1, -1, -1], [x[4], x[6], x[7], x[9]], -1);
constraint int_lin_le([-1, -1, -1, -1, -1], [x[2], x[4], x[5], x[6], x[7]], -1);
solve minimize INT____00001;
